Academic license - for non-commercial use only
Gurobi Optimizer version 9.0.3 build v9.0.3rc0 (mac64)
Optimize a model with 21858 rows, 20160 columns and 110380 nonzeros
Model fingerprint: 0xf5bef9a2
Variable types: 0 continuous, 20160 integer (20160 binary)
Coefficient statistics:
  Matrix range     [1e+00, 1e+00]
  Objective range  [1e+01, 3e+04]
  Bounds range     [1e+00, 1e+00]
  RHS range        [1e+00, 2e+02]
Presolve removed 20 rows and 20 columns
Presolve time: 0.15s
Presolved: 21838 rows, 20140 columns, 110340 nonzeros
Variable types: 0 continuous, 20140 integer (20140 binary)
Found heuristic solution: objective 127801.00000

Concurrent LP optimizer: dual simplex and barrier
Showing barrier log only...

Root barrier log...

Ordering time: 0.07s

Barrier statistics:
 Dense cols : 80
 AA' NZ     : 9.484e+04
 Factor NZ  : 4.102e+05 (roughly 20 MBytes of memory)
 Factor Ops : 1.415e+07 (less than 1 second per iteration)
 Threads    : 3

                  Objective                Residual
Iter       Primal          Dual         Primal    Dual     Compl     Time
   0   1.04317353e+07 -4.50165163e+04  8.07e+01 0.00e+00  1.63e+03     0s
   1   1.75570904e+05 -1.99839530e+06  3.13e-01 5.54e+02  3.99e+01     0s
   2   1.41763892e+05  4.82264355e+04  3.52e-02 3.70e+00  1.49e+00     0s
   3   1.32909450e+05  9.32337721e+04  1.56e-02 9.71e-01  6.21e-01     0s
   4   1.21166120e+05  1.01694373e+05  5.74e-03 4.18e-01  3.06e-01     1s
   5   1.16778161e+05  1.05499553e+05  3.27e-03 2.38e-01  1.77e-01     1s
   6   1.14833513e+05  1.06798770e+05  2.29e-03 1.68e-01  1.26e-01     1s
   7   1.13325212e+05  1.07841346e+05  1.58e-03 1.09e-01  8.61e-02     1s
   8   1.11955131e+05  1.08523272e+05  9.48e-04 6.92e-02  5.39e-02     1s
   9   1.11236424e+05  1.08912921e+05  6.37e-04 4.62e-02  3.65e-02     1s
  10   1.10652248e+05  1.09088836e+05  3.94e-04 3.51e-02  2.46e-02     1s
  11   1.10425752e+05  1.09236100e+05  3.02e-04 2.63e-02  1.87e-02     1s
  12   1.10274425e+05  1.09327006e+05  2.43e-04 2.02e-02  1.49e-02     1s
  13   1.10130609e+05  1.09369215e+05  1.88e-04 1.74e-02  1.20e-02     1s
  14   1.09966066e+05  1.09450315e+05  1.25e-04 1.15e-02  8.13e-03     1s
  15   1.09849216e+05  1.09498739e+05  8.13e-05 7.93e-03  5.53e-03     1s
  16   1.09783961e+05  1.09554592e+05  5.75e-05 4.33e-03  3.61e-03     1s
  17   1.09730512e+05  1.09567844e+05  3.86e-05 3.41e-03  2.57e-03     1s
  18   1.09720649e+05  1.09572802e+05  3.51e-05 3.08e-03  2.33e-03     1s
  19   1.09695862e+05  1.09586405e+05  2.63e-05 2.15e-03  1.73e-03     1s
  20   1.09672909e+05  1.09594864e+05  1.83e-05 1.57e-03  1.23e-03     1s
  21   1.09653303e+05  1.09601261e+05  1.15e-05 1.15e-03  8.22e-04     1s
  22   1.09638482e+05  1.09607935e+05  6.69e-06 6.73e-04  4.83e-04     1s
  23   1.09633820e+05  1.09611916e+05  5.16e-06 3.90e-04  3.46e-04     1s
  24   1.09632609e+05  1.09612851e+05  4.75e-06 3.25e-04  3.12e-04     1s
  25   1.09628238e+05  1.09613547e+05  3.33e-06 2.74e-04  2.32e-04     1s
  26   1.09623586e+05  1.09616262e+05  1.88e-06 7.65e-05  1.15e-04     1s
  27   1.09622168e+05  1.09616706e+05  1.42e-06 5.10e-05  8.60e-05     1s
  28   1.09619403e+05  1.09617007e+05  5.58e-07 3.17e-05  3.78e-05     1s
  29   1.09618228e+05  1.09617122e+05  2.05e-07 2.48e-05  1.75e-05     1s
  30   1.09617581e+05  1.09617530e+05  1.07e-08 1.86e-06  8.03e-07     1s
  31   1.09617540e+05  1.09617540e+05  1.61e-10 5.20e-08  8.03e-10     1s

Barrier solved model in 31 iterations and 1.00 seconds
Optimal objective 1.09617540e+05


Solved with barrier

Root relaxation: objective 1.096175e+05, 2590 iterations, 0.77 seconds

    Nodes    |    Current Node    |     Objective Bounds      |     Work
 Expl Unexpl |  Obj  Depth IntInf | Incumbent    BestBd   Gap | It/Node Time

     0     0 109617.540    0 2701 127801.000 109617.540  14.2%     -    1s
H    0     0                    114130.00000 109617.540  3.95%     -    1s
H    0     0                    113574.00000 109617.540  3.48%     -    1s
H    0     0                    111682.00000 109617.540  1.85%     -    2s
     0     0 109621.033    0 2659 111682.000 109621.033  1.85%     -    3s
H    0     0                    111390.00000 109621.033  1.59%     -    3s
     0     0 109621.426    0 2660 111390.000 109621.426  1.59%     -    3s
     0     0 109621.426    0 2660 111390.000 109621.426  1.59%     -    4s
     0     0 109634.988    0 2967 111390.000 109634.988  1.58%     -    4s
     0     0 109635.540    0 2959 111390.000 109635.540  1.58%     -    5s
     0     0 109635.566    0 2969 111390.000 109635.566  1.58%     -    5s
     0     0 109901.953    0 2979 111390.000 109901.953  1.34%     -    6s
     0     0 109901.953    0 2986 111390.000 109901.953  1.34%     -    6s
     0     0 109901.953    0 2985 111390.000 109901.953  1.34%     -    6s
     0     0 109902.190    0 2985 111390.000 109902.190  1.34%     -    8s
     0     0 109902.190    0 2993 111390.000 109902.190  1.34%     -    8s
     0     0 109902.190    0 2993 111390.000 109902.190  1.34%     -    8s
     0     0 109902.190    0 2738 111390.000 109902.190  1.34%     -    8s
H    0     0                    110531.00000 109902.190  0.57%     -    9s
     0     0 109956.000    0 3000 110531.000 109956.000  0.52%     -    9s
     0     0 109957.333    0 2997 110531.000 109957.333  0.52%     -   10s
     0     0 109957.333    0 2996 110531.000 109957.333  0.52%     -   10s
     0     0 109957.333    0 2997 110531.000 109957.333  0.52%     -   10s
     0     0 110051.887    0 3004 110531.000 110051.887  0.43%     -   11s
     0     0 110051.887    0 2995 110531.000 110051.887  0.43%     -   12s
     0     2 110051.887    0 2995 110531.000 110051.887  0.43%     -   13s
     1     4 110051.887    1 2811 110531.000 110051.887  0.43%  4447   15s
    28     9 110370.875    7 2375 110531.000 110104.267  0.39%   984   20s

Cutting planes:
  Gomory: 5
  Zero half: 85

Explored 265 nodes (61794 simplex iterations) in 23.43 seconds
Thread count was 8 (of 8 available processors)

Solution count 6: 110531 111390 111682 ... 127801

Optimal solution found (tolerance 1.00e-04)
Best objective 1.105310000000e+05, best bound 1.105310000000e+05, gap 0.0000%

User-callback calls 4877, time in user-callback 0.03 sec
Solution written to /Users/mdeboute/Desktop/Etudes/Master/M2/S9/GOPP/Projet/multi-period-flp/solution/instMulti_I20_J250_T4_0_result.txt
